Esercizi di altri/Esercizi_Mauro/PL/Dati/10 Mars Express.txt
Le orbite sono 10.
Le memorie sono 5.

----------------------------------------------------

Dati in input [Mbit]
	Memoria	1	2	3	4	5
Orbita
1		35	0	80	25	50	
2		200	70	100	25	0	
3		0	150	0	25	100	
4		600	300	0	25	75	
5		200	0	210	25	200	
6		50	0	85	0	45	
7		40	60	50	0	300	
8		300	90	20	60	0	
9		0	100	100	60	20	
10		0	20	100	60	250

----------------------------------------------------

Orbita	T trasmissione [min]
1	45
2	47
3	55
4	45
5	35
6	42
7	30
8	35
9	44
10	40

----------------------------------------------------

Memoria	Capacità [Mbit]	Stato iniziale [Mbit]
1		1000		500
2		1200		600
3		1000		500
4		 500		250
5		 700		350

----------------------------------------------------

Bit rate in trasmissione:  9.00 Mbit/min.

