Esercizi di altri/Esercizi_Mauro/PL/Modelli/10 Mars Express.out
Problem:    10
Rows:       161
Columns:    151
Non-zeros:  396
Status:     OPTIMAL
Objective:  maxliv = 0.6338636364 (MINimum)

   No.   Row name   St   Activity     Lower bound   Upper bound    Marginal
------ ------------ -- ------------- ------------- ------------- -------------
     1 Flow_conservation_1[2,1]
                    NS             0            -0             =  -0.000227273 
     2 Flow_conservation_1[2,2]
                    NS             0            -0             =  -0.000227273 
     3 Flow_conservation_1[2,3]
                    NS             0            -0             =  -0.000227273 
     4 Flow_conservation_1[2,4]
                    NS             0            -0             =  -0.000227273 
     5 Flow_conservation_1[2,5]
                    NS             0            -0             =  -0.000227273 
     6 Flow_conservation_1[3,1]
                    NS             0            -0             =  -0.000227273 
     7 Flow_conservation_1[3,2]
                    NS             0            -0             =  -0.000227273 
     8 Flow_conservation_1[3,3]
                    NS             0            -0             =  -0.000227273 
     9 Flow_conservation_1[3,4]
                    NS             0            -0             =  -0.000227273 
    10 Flow_conservation_1[3,5]
                    NS             0            -0             =  -0.000227273 
    11 Flow_conservation_1[4,1]
                    NS             0            -0             =  -0.000227273 
    12 Flow_conservation_1[4,2]
                    NS             0            -0             =  -0.000227273 
    13 Flow_conservation_1[4,3]
                    NS             0            -0             =  -0.000227273 
    14 Flow_conservation_1[4,4]
                    NS             0            -0             =  -0.000227273 
    15 Flow_conservation_1[4,5]
                    NS             0            -0             =  -0.000227273 
    16 Flow_conservation_1[5,1]
                    NS             0            -0             =  -0.000227273 
    17 Flow_conservation_1[5,2]
                    NS             0            -0             =  -0.000227273 
    18 Flow_conservation_1[5,3]
                    NS             0            -0             =  -0.000227273 
    19 Flow_conservation_1[5,4]
                    NS             0            -0             =  -0.000227273 
    20 Flow_conservation_1[5,5]
                    NS             0            -0             =  -0.000227273 
    21 Flow_conservation_1[6,1]
                    NS             0            -0             =  -0.000227273 
    22 Flow_conservation_1[6,2]
                    NS             0            -0             =  -0.000227273 
    23 Flow_conservation_1[6,3]
                    NS             0            -0             =  -0.000227273 
    24 Flow_conservation_1[6,4]
                    NS             0            -0             =  -0.000227273 
    25 Flow_conservation_1[6,5]
                    NS             0            -0             =  -0.000227273 
    26 Flow_conservation_1[7,1]
                    NS             0            -0             =  -0.000227273 
    27 Flow_conservation_1[7,2]
                    NS             0            -0             =  -0.000227273 
    28 Flow_conservation_1[7,3]
                    NS             0            -0             =  -0.000227273 
    29 Flow_conservation_1[7,4]
                    NS             0            -0             =  -0.000227273 
    30 Flow_conservation_1[7,5]
                    NS             0            -0             =  -0.000227273 
    31 Flow_conservation_1[8,1]
                    NS             0            -0             =  -0.000227273 
    32 Flow_conservation_1[8,2]
                    NS             0            -0             =  -0.000227273 
    33 Flow_conservation_1[8,3]
                    NS             0            -0             =  -0.000227273 
    34 Flow_conservation_1[8,4]
                    NS             0            -0             =  -0.000227273 
    35 Flow_conservation_1[8,5]
                    NS             0            -0             =         < eps
    36 Flow_conservation_1[9,1]
                    NS             0            -0             =         < eps
    37 Flow_conservation_1[9,2]
                    NS             0            -0             =         < eps
    38 Flow_conservation_1[9,3]
                    NS             0            -0             =         < eps
    39 Flow_conservation_1[9,4]
                    NS             0            -0             =         < eps
    40 Flow_conservation_1[9,5]
                    NS             0            -0             =         < eps
    41 Flow_conservation_1[10,1]
                    NS             0            -0             =         < eps
    42 Flow_conservation_1[10,2]
                    NS             0            -0             =         < eps
    43 Flow_conservation_1[10,3]
                    NS             0            -0             =         < eps
    44 Flow_conservation_1[10,4]
                    NS             0            -0             =         < eps
    45 Flow_conservation_1[10,5]
                    NS             0            -0             =         < eps
    46 Prima_orbita[1]
                    NS          -500          -500             =  -0.000227273 
    47 Prima_orbita[2]
                    NS          -600          -600             =  -0.000227273 
    48 Prima_orbita[3]
                    NS          -500          -500             =  -0.000227273 
    49 Prima_orbita[4]
                    NS          -250          -250             =  -0.000227273 
    50 Prima_orbita[5]
                    NS          -350          -350             =  -0.000227273 
    51 Flow_conservation_2[1,1]
                    NS           -35           -35             =  -0.000227273 
    52 Flow_conservation_2[1,2]
                    NS             0            -0             =  -0.000227273 
    53 Flow_conservation_2[1,3]
                    NS           -80           -80             =  -0.000227273 
    54 Flow_conservation_2[1,4]
                    NS           -25           -25             =  -0.000227273 
    55 Flow_conservation_2[1,5]
                    NS           -50           -50             =  -0.000227273 
    56 Flow_conservation_2[2,1]
                    NS          -200          -200             =  -0.000227273 
    57 Flow_conservation_2[2,2]
                    NS           -70           -70             =  -0.000227273 
    58 Flow_conservation_2[2,3]
                    NS          -100          -100             =  -0.000227273 
    59 Flow_conservation_2[2,4]
                    NS           -25           -25             =  -0.000227273 
    60 Flow_conservation_2[2,5]
                    NS             0            -0             =  -0.000227273 
    61 Flow_conservation_2[3,1]
                    NS             0            -0             =  -0.000227273 
    62 Flow_conservation_2[3,2]
                    NS          -150          -150             =  -0.000227273 
    63 Flow_conservation_2[3,3]
                    NS             0            -0             =  -0.000227273 
    64 Flow_conservation_2[3,4]
                    NS           -25           -25             =  -0.000227273 
    65 Flow_conservation_2[3,5]
                    NS          -100          -100             =  -0.000227273 
    66 Flow_conservation_2[4,1]
                    NS          -600          -600             =  -0.000227273 
    67 Flow_conservation_2[4,2]
                    NS          -300          -300             =  -0.000227273 
    68 Flow_conservation_2[4,3]
                    NS             0            -0             =  -0.000227273 
    69 Flow_conservation_2[4,4]
                    NS           -25           -25             =  -0.000227273 
    70 Flow_conservation_2[4,5]
                    NS           -75           -75             =  -0.000227273 
    71 Flow_conservation_2[5,1]
                    NS          -200          -200             =  -0.000227273 
    72 Flow_conservation_2[5,2]
                    NS             0            -0             =  -0.000227273 
    73 Flow_conservation_2[5,3]
                    NS          -210          -210             =  -0.000227273 
    74 Flow_conservation_2[5,4]
                    NS           -25           -25             =  -0.000227273 
    75 Flow_conservation_2[5,5]
                    NS          -200          -200             =  -0.000227273 
    76 Flow_conservation_2[6,1]
                    NS           -50           -50             =  -0.000227273 
    77 Flow_conservation_2[6,2]
                    NS             0            -0             =  -0.000227273 
    78 Flow_conservation_2[6,3]
                    NS           -85           -85             =  -0.000227273 
    79 Flow_conservation_2[6,4]
                    NS             0            -0             =  -0.000227273 
    80 Flow_conservation_2[6,5]
                    NS           -45           -45             =  -0.000227273 
    81 Flow_conservation_2[7,1]
                    NS           -40           -40             =  -0.000227273 
    82 Flow_conservation_2[7,2]
                    NS           -60           -60             =  -0.000227273 
    83 Flow_conservation_2[7,3]
                    NS           -50           -50             =  -0.000227273 
    84 Flow_conservation_2[7,4]
                    NS             0            -0             =  -0.000227273 
    85 Flow_conservation_2[7,5]
                    NS          -300          -300             =  -0.000227273 
    86 Flow_conservation_2[8,1]
                    NS          -300          -300             =  -0.000227273 
    87 Flow_conservation_2[8,2]
                    NS           -90           -90             =  -0.000227273 
    88 Flow_conservation_2[8,3]
                    NS           -20           -20             =  -0.000227273 
    89 Flow_conservation_2[8,4]
                    NS           -60           -60             =  -0.000227273 
    90 Flow_conservation_2[8,5]
                    NS             0            -0             =         < eps
    91 Flow_conservation_2[9,1]
                    NS             0            -0             =         < eps
    92 Flow_conservation_2[9,2]
                    NS          -100          -100             =         < eps
    93 Flow_conservation_2[9,3]
                    NS          -100          -100             =         < eps
    94 Flow_conservation_2[9,4]
                    NS           -60           -60             =         < eps
    95 Flow_conservation_2[9,5]
                    NS           -20           -20             =         < eps
    96 Flow_conservation_2[10,1]
                    NS             0            -0             =         < eps
    97 Flow_conservation_2[10,2]
                    NS           -20           -20             =         < eps
    98 Flow_conservation_2[10,3]
                    NS          -100          -100             =         < eps
    99 Flow_conservation_2[10,4]
                    NS           -60           -60             =         < eps
   100 Flow_conservation_2[10,5]
                    NS          -250          -250             =         < eps
   101 Capacity_orbite[1]
                    NU           405                         405  -0.000227273 
   102 Capacity_orbite[2]
                    NU           423                         423  -0.000227273 
   103 Capacity_orbite[3]
                    NU           495                         495  -0.000227273 
   104 Capacity_orbite[4]
                    NU           405                         405  -0.000227273 
   105 Capacity_orbite[5]
                    NU           315                         315  -0.000227273 
   106 Capacity_orbite[6]
                    NU           378                         378  -0.000227273 
   107 Capacity_orbite[7]
                    NU           270                         270  -0.000227273 
   108 Capacity_orbite[8]
                    NU           315                         315  -0.000227273 
   109 Capacity_orbite[9]
                    NU           396                         396         < eps
   110 Capacity_orbite[10]
                    NU           360                         360         < eps
   111 maxliv       B       0.633864                             
   112 minmax[1,1]  B      0.0988636            -0               
   113 minmax[1,2]  B       0.133864            -0               
   114 minmax[1,3]  B      0.0538636            -0               
   115 minmax[1,4]  B           0.32            -0               
   116 minmax[1,5]  B       0.472338            -0               
   117 minmax[2,1]  B       0.103295            -0               
   118 minmax[2,2]  B          0.125            -0               
   119 minmax[2,3]  NL             0            -0                       < eps
   120 minmax[2,4]  B           0.27            -0               
   121 minmax[2,5]  B       0.633864            -0               
   122 minmax[3,1]  B       0.598295            -0               
   123 minmax[3,2]  NL             0            -0                       < eps
   124 minmax[3,3]  B              0            -0               
   125 minmax[3,4]  B           0.22            -0               
   126 minmax[3,5]  B       0.491006            -0               
   127 minmax[4,1]  NL             0            -0                       < eps
   128 minmax[4,2]  NL             0            -0                       < eps
   129 minmax[4,3]  B          0.095            -0               
   130 minmax[4,4]  B           0.17            -0               
   131 minmax[4,5]  B       0.395714            -0               
   132 minmax[5,1]  NL             0            -0                       < eps
   133 minmax[5,2]  B              0            -0               
   134 minmax[5,3]  NL             0            -0                       < eps
   135 minmax[5,4]  B           0.12            -0               
   136 minmax[5,5]  B           0.11            -0               
   137 minmax[6,1]  NL             0            -0                       < eps
   138 minmax[6,2]  B              0            -0               
   139 minmax[6,3]  NL             0            -0                       < eps
   140 minmax[6,4]  B           0.12            -0               
   141 minmax[6,5]  B       0.392857            -0               
   142 minmax[7,1]  B          0.095            -0               
   143 minmax[7,2]  NL             0            -0                       < eps
   144 minmax[7,3]  NL             0            -0                       < eps
   145 minmax[7,4]  B           0.12            -0               
   146 minmax[7,5]  NL             0            -0                    0.159091 
   147 minmax[8,1]  NL             0            -0                    0.227273 
   148 minmax[8,2]  NL             0            -0                    0.272727 
   149 minmax[8,3]  NL             0            -0                    0.227273 
   150 minmax[8,4]  NL             0            -0                    0.113636 
   151 minmax[8,5]  B              0            -0               
   152 minmax[9,1]  B              0            -0               
   153 minmax[9,2]  NL             0            -0                       < eps
   154 minmax[9,3]  B           0.01            -0               
   155 minmax[9,4]  B          0.212            -0               
   156 minmax[9,5]  NL             0            -0                       < eps
   157 minmax[10,1] B              0            -0               
   158 minmax[10,2] NL             0            -0                       < eps
   159 minmax[10,3] NL             0            -0                       < eps
   160 minmax[10,4] B          0.092            -0               
   161 minmax[10,5] NL             0            -0                       < eps

   No. Column name  St   Activity     Lower bound   Upper bound    Marginal
------ ------------ -- ------------- ------------- ------------- -------------
     1 x[2,1]       B        204.432             0               
     2 x[2,2]       B        59.3636             0               
     3 x[2,3]       B        46.1364             0               
     4 x[2,4]       NL             0             0                       < eps
     5 x[2,5]       B        113.068             0               
     6 x[3,1]       B            495             0               
     7 x[3,2]       NL             0             0                       < eps
     8 x[3,3]       NL             0             0                       < eps
     9 x[3,4]       NL             0             0                       < eps
    10 x[3,5]       B              0             0               
    11 x[4,1]       B        1.70455             0               
    12 x[4,2]       B            300             0               
    13 x[4,3]       B             95             0               
    14 x[4,4]       NL             0             0                       < eps
    15 x[4,5]       B        8.29545             0               
    16 x[5,1]       B            200             0               
    17 x[5,2]       NL             0             0                       < eps
    18 x[5,3]       B            115             0               
    19 x[5,4]       NL             0             0                       < eps
    20 x[5,5]       NL             0             0                       < eps
    21 x[6,1]       B             50             0               
    22 x[6,2]       NL             0             0                       < eps
    23 x[6,3]       B             85             0               
    24 x[6,4]       NL             0             0                       < eps
    25 x[6,5]       B            243             0               
    26 x[7,1]       B            135             0               
    27 x[7,2]       B             60             0               
    28 x[7,3]       B             50             0               
    29 x[7,4]       NL             0             0                       < eps
    30 x[7,5]       B             25             0               
    31 x[8,1]       B            205             0               
    32 x[8,2]       B             90             0               
    33 x[8,3]       B             20             0               
    34 x[8,4]       NL             0             0                       < eps
    35 x[8,5]       NL             0             0                 0.000227273 
    36 x[9,1]       NL             0             0                       < eps
    37 x[9,2]       B            100             0               
    38 x[9,3]       B            110             0               
    39 x[9,4]       B            166             0               
    40 x[9,5]       B             20             0               
    41 x[10,1]      NL             0             0                       < eps
    42 x[10,2]      B             20             0               
    43 x[10,3]      B             90             0               
    44 x[10,4]      NL             0             0                       < eps
    45 x[10,5]      B            250             0               
    46 x[1,1]       NL             0             0                       < eps
    47 x[1,2]       NL             0             0                       < eps
    48 x[1,3]       NL             0             0                       < eps
    49 x[1,4]       B        118.068             0               
    50 x[1,5]       B        286.932             0               
    51 y[1,1]       B            535             0          1000 
    52 y[1,2]       B            600             0          1200 
    53 y[1,3]       B            580             0          1000 
    54 y[1,4]       B        156.932             0           500 
    55 y[1,5]       B        113.068             0           700 
    56 y[2,1]       B        530.568             0          1000 
    57 y[2,2]       B        610.636             0          1200 
    58 y[2,3]       B        633.864             0          1000 
    59 y[2,4]       B        181.932             0           500 
    60 y[2,5]       B              0             0           700 
    61 y[3,1]       B        35.5682             0          1000 
    62 y[3,2]       B        760.636             0          1200 
    63 y[3,3]       B        633.864             0          1000 
    64 y[3,4]       B        206.932             0           500 
    65 y[3,5]       B            100             0           700 
    66 y[4,1]       B        633.864             0          1000 
    67 y[4,2]       B        760.636             0          1200 
    68 y[4,3]       B        538.864             0          1000 
    69 y[4,4]       B        231.932             0           500 
    70 y[4,5]       B        166.705             0           700 
    71 y[5,1]       B        633.864             0          1000 
    72 y[5,2]       B        760.636             0          1200 
    73 y[5,3]       B        633.864             0          1000 
    74 y[5,4]       B        256.932             0           500 
    75 y[5,5]       B        366.705             0           700 
    76 y[6,1]       B        633.864             0          1000 
    77 y[6,2]       B        760.636             0          1200 
    78 y[6,3]       B        633.864             0          1000 
    79 y[6,4]       B        256.932             0           500 
    80 y[6,5]       B        168.705             0           700 
    81 y[7,1]       B        538.864             0          1000 
    82 y[7,2]       B        760.636             0          1200 
    83 y[7,3]       B        633.864             0          1000 
    84 y[7,4]       B        256.932             0           500 
    85 y[7,5]       B        443.705             0           700 
    86 y[8,1]       B        633.864             0          1000 
    87 y[8,2]       B        760.636             0          1200 
    88 y[8,3]       B        633.864             0          1000 
    89 y[8,4]       B        316.932             0           500 
    90 y[8,5]       B        443.705             0           700 
    91 y[9,1]       B        633.864             0          1000 
    92 y[9,2]       B        760.636             0          1200 
    93 y[9,3]       B        623.864             0          1000 
    94 y[9,4]       B        210.932             0           500 
    95 y[9,5]       B        443.705             0           700 
    96 y[10,1]      B        633.864             0          1000 
    97 y[10,2]      B        760.636             0          1200 
    98 y[10,3]      B        633.864             0          1000 
    99 y[10,4]      B        270.932             0           500 
   100 y[10,5]      B        443.705             0           700 
   101 z[2,1]       B        330.568             0               
   102 z[2,2]       B        540.636             0               
   103 z[2,3]       B        533.864             0               
   104 z[2,4]       B        156.932             0               
   105 z[2,5]       NL             0             0                       < eps
   106 z[3,1]       B        35.5682             0               
   107 z[3,2]       B        610.636             0               
   108 z[3,3]       B        633.864             0               
   109 z[3,4]       B        181.932             0               
   110 z[3,5]       NL             0             0                       < eps
   111 z[4,1]       B        33.8636             0               
   112 z[4,2]       B        460.636             0               
   113 z[4,3]       B        538.864             0               
   114 z[4,4]       B        206.932             0               
   115 z[4,5]       B        91.7045             0               
   116 z[5,1]       B        433.864             0               
   117 z[5,2]       B        760.636             0               
   118 z[5,3]       B        423.864             0               
   119 z[5,4]       B        231.932             0               
   120 z[5,5]       B        166.705             0               
   121 z[6,1]       B        583.864             0               
   122 z[6,2]       B        760.636             0               
   123 z[6,3]       B        548.864             0               
   124 z[6,4]       B        256.932             0               
   125 z[6,5]       B        123.705             0               
   126 z[7,1]       B        498.864             0               
   127 z[7,2]       B        700.636             0               
   128 z[7,3]       B        583.864             0               
   129 z[7,4]       B        256.932             0               
   130 z[7,5]       B        143.705             0               
   131 z[8,1]       B        333.864             0               
   132 z[8,2]       B        670.636             0               
   133 z[8,3]       B        613.864             0               
   134 z[8,4]       B        256.932             0               
   135 z[8,5]       B        443.705             0               
   136 z[9,1]       B        633.864             0               
   137 z[9,2]       B        660.636             0               
   138 z[9,3]       B        523.864             0               
   139 z[9,4]       B        150.932             0               
   140 z[9,5]       B        423.705             0               
   141 z[10,1]      B        633.864             0               
   142 z[10,2]      B        740.636             0               
   143 z[10,3]      B        533.864             0               
   144 z[10,4]      B        210.932             0               
   145 z[10,5]      B        193.705             0               
   146 z[1,1]       B            500             0               
   147 z[1,2]       B            600             0               
   148 z[1,3]       B            500             0               
   149 z[1,4]       B        131.932             0               
   150 z[1,5]       B        63.0682             0               
   151 w            B       0.633864                             

Karush-Kuhn-Tucker optimality conditions:

KKT.PE: max.abs.err = 1.14e-013 on row 3
        max.rel.err = 1.07e-016 on row 6
        High quality

KKT.PB: max.abs.err = 1.11e-016 on row 133
        max.rel.err = 1.11e-016 on row 133
        High quality

KKT.DE: max.abs.err = 2.22e-016 on column 151
        max.rel.err = 7.40e-017 on column 151
        High quality

KKT.DB: max.abs.err = 7.91e-017 on row 128
        max.rel.err = 7.91e-017 on row 128
        High quality

End of output
